399,18
593,527
617,605
850,283
738,424
618,469
658,258
773,121
596,379
618,469
368,305
282,535
435,745
293,688
448,639
491,596
644,520
999,724
871,780
699,463
1006,355
898,-21
935,152
570,64
399,18
368,305
